NAME : tsp45_29.206.tour
COMMENT : Length = 206
COMMENT : Found by LKH [Keld Helsgaun]
TYPE : TOUR
DIMENSION : 45
TOUR_SECTION
1
11
12
15
40
9
25
38
14
10
30
41
24
37
31
45
27
34
35
42
8
29
23
4
18
39
19
43
33
3
2
20
28
36
13
26
7
21
5
6
44
32
17
22
16
-1
EOF
